1177.96
0 19 14 12 5 3 4 2 1 6 8 10 11 9 7 0
0 15 16 18 17 13 22 21 20 0
0 31 35 32 34 30 28 25 27 29 24 26 23 0
0 36 39 38 37 33 45 42 44 47 40 41 43 0
0 61 53 56 54 55 59 48 51 50 49 46 52 0
0 58 60 57 64 62 66 65 63 67 0
0 77 73 70 71 76 78 72 74 68 69 75 0
0 80 79 81 82 83 84 85 88 89 86 87 0
0 92 93 94 98 95 96 97 99 91 90 0
0 100 0
